Route #1: 29 32 12 40 22 25 4 15
Route #2: 5 39 27 24 33 47 49 50 13 51 3 46 35 16 23 10 14 18 17 20
Route #3: 30 6 44 34 8 36
Route #4: 41 31 21 2 19 43
Route #5: 42 26 7 37 11 28 9 52 48 38 45
Route #6: 1
Route #7: 
cost 1225.8693849830042
